100
1000
621
620
617
607
602
591
589
586
585
581
579
569
561
558
555
554
546
544
539
539
526
503
502
498
489
471
456
451
450
443
438
436
434
425
424
424
420
420
418
408
405
404
377
371
361
359
346
340
331
321
320
313
310
308
299
286
281
274
270
269
264
262
262
254
250
215
214
208
205
200
193
183
177
171
163
162
158
156
154
146
146
136
124
118
115
109
105
101
101
94
92
88
86
79
76
74
73
73
67
66
